problem_generation/data/GISP/train/er_n=64_m=1216_p=0.60_SET2_setparam=100.00_alpha=0.50_574.lp
maximize
OBJ:100x0 + 100x1 + 100x2 + 100x3 + 100x4 + 100x5 + 100x6 + 100x7 + 100x8 + 100x9 + 100x10 + 100x11 + 100x12 + 100x13 + 100x14 + 100x15 + 100x16 + 100x17 + 100x18 + 100x19 + 100x20 + 100x21 + 100x22 + 100x23 + 100x24 + 100x25 + 100x26 + 100x27 + 100x28 + 100x29 + 100x30 + 100x31 + 100x32 + 100x33 + 100x34 + 100x35 + 100x36 + 100x37 + 100x38 + 100x39 + 100x40 + 100x41 + 100x42 + 100x43 + 100x44 + 100x45 + 100x46 + 100x47 + 100x48 + 100x49 + 100x50 + 100x51 + 100x52 + 100x53 + 100x54 + 100x55 + 100x56 + 100x57 + 100x58 + 100x59 + 100x60 + 100x61 + 100x62 + 100x63 - y55_57 - y7_17 - y36_53 - y47_53 - y47_62 - y9_63 - y29_41 - y11_14 - y48_63 - y21_46 - y0_23 - y11_23 - y29_59 - y2_32 - y2_41 - y3_6 - y3_15 - y2_59 - y3_42 - y36_48 - y55_61 - y18_30 - y9_49 - y5_60 - y17_62 - y6_34 - y29_36 - y29_45 - y48_58 - y21_41 - y6_52 - y40_54 - y6_61 - y10_22 - y2_27 - y33_42 - y2_36 - y25_38 - y25_47 - y3_10 - y51_59 - y3_28 - y14_37 - y16_56 - y36_43 - y55_56 - y17_39 - y7_16 - y47_61 - y29_31 - y21_36 - y2_13 - y2_22 - y10_35 - y33_37 - y10_44 - y2_40 - y2_49 - y3_23 - y32_59 - y24_55 - y14_32 - y6_15 - y28_61 - y6_24 - y58_62 - y50_58 - y6_33 - y6_42 - y10_12 - y2_8 - y54_55 - y10_30 - y2_35 - y32_36 - y32_54 - y1_48 - y43_63 - y17_20 - y9_34 - y17_47 - y28_47 - y9_43 - y5_54 - y28_56 - y50_53 - y61_62 - y2_3 - y20_48 - y31_48 - y10_25 - y62_63 - y2_21 - y2_30 - y13_36 - y35_36 - y1_43 - y35_45 - y16_41 - y13_54 - y16_50 - y1_61 - y35_63 - y5_22 - y5_31 - y17_33 - y27_55 - y6_32 - y21_30 - y19_60 - y30_60 - y20_43 - y39_56 - y31_61 - y4_44 - y4_53 - y1_29 - y4_62 - y1_38 - y13_40 - y35_49 - y16_45 - y1_56 - y5_17 - y17_19 - y9_15 - y49_51 - y17_28 - y38_60 - y5_35 - y17_37 - y28_37 - y7_63 - y8_46 - y30_46 - y19_55 - y42_57 - y0_51 - y12_25 - y20_38 - y39_51 - y20_47 - y23_52 - y1_15 - y13_17 - y1_24 - y13_26 - y4_57 - y16_22 - y32_39 - y13_35 - y34_58 - y53_62 - y24_44 - y16_40 - y5_12 - y46_50 - y38_46 - y5_21 - y57_59 - y26_53 - y5_30 - y15_62 - y7_58 - y18_58 - y6_13 - y27_45 - y0_37 - y0_46 - y30_59 - y31_33 - y20_42 - y31_42 - y12_38 - y4_34 - y4_52 - y1_28 - y13_30 - y4_61 - y56_62 - y1_37 - y37_58 - y16_35 - y1_46 - y38_41 - y38_50 - y46_63 - y57_63 - y15_57 - y38_59 - y7_53 - y27_31 - y27_40 - y50_51 - y30_45 - y0_41 - y8_54 - y12_15 - y8_63 - y11_59 - y39_41 - y4_20 - y1_14 - y24_25 - y45_57 - y15_34 - y5_11 - y46_49 - y38_45 - y57_58 - y49_54 - y18_48 - y18_57 - y19_22 - y27_35 - y27_44 - y8_40 - y30_40 - y8_49 - y19_49 - y30_49 - y0_45 - y41_46 - y11_54 - y20_32 - y4_33 - y2_63 - y53_56 - y37_39 - y22_50 - y14_46 - y22_59 - y37_57 - y15_29 - y5_6 - y7_25 - y26_38 - y38_40 - y18_34 - y15_56 - y0_4 - y8_35 - y19_35 - y11_49 - y12_14 - y41_50 - y4_10 - y12_23 - y4_28 - y25_60 - y22_36 - y1_13 - y14_41 - y45_56 - y14_50 - y3_59 - y14_59 - y37_61 - y18_20 - y7_38 - y26_51 - y8_21 - y11_17 - y40_53 - y8_30 - y40_62 - y21_58 - y41_45 - y41_54 - y4_14 - y25_46 - y2_53 - y22_31 - y2_62 - y3_27 - y22_40 - y37_38 - y37_47 - y3_54 - y15_28 - y7_24 - y18_24 - y15_37 - y36_60 - y7_42 - y0_3 - y8_16 - y11_12 - y29_48 - y48_61 - y21_44 - y0_21 - y11_21 - y29_57 - y40_57 - y10_34 - y33_36 - y41_58 - y2_48 - y3_13 - y22_26 - y25_59 - y22_35 - y3_31 - y22_44 - y3_40 - y22_53 - y36_55 - y17_60 - y7_37 - y18_37 - y29_34 - y40_43 - y21_48 - y2_25 - y25_27 - y10_38 - y2_34 - y25_36 - y10_47 - y33_49 - y25_45 - y2_52 - y14_17 - y3_26 - y43_62 - y3_44 - y14_44 - y16_63 - y15_18 - y47_50 - y55_63 - y7_23 - y36_59 - y9_51 - y6_27 - y29_38 - y29_47 - y40_47 - y21_52 - y10_15 - y6_63 - y10_51 - y2_47 - y2_56 - y43_57 - y24_53 - y14_30 - y35_62 - y16_58 - y28_41 - y36_54 - y17_50 - y9_46 - y21_29 - y21_47 - y2_6 - y20_60 - y10_37 - y32_52 - y24_48 - y14_25 - y43_61 - y1_55 - y13_57 - y24_57 - y28_36 - y28_45 - y36_58 - y47_58 - y6_17 - y5_61 - y9_59 - y10_23 - y39_59 - y12_51 - y23_51 - y13_25 - y4_56 - y24_34 - y32_47 - y32_56 - y24_52 - y35_52 - y13_61 - y35_61 - y5_20 - y17_22 - y5_29 - y17_40 - y6_12 - y6_21 - y50_55 - y42_51 - y27_62 - y42_60 - y39_45 - y2_5 - y20_41 - y10_18 - y39_54 - y2_14 - y31_50 - y31_59 - y12_55 - y32_33 - y1_27 - y24_29 - y43_51 - y1_45 - y24_47 - y1_54 - y35_56 - y5_15 - y46_53 - y9_13 - y17_26 - y46_62 - y9_22 - y17_35 - y28_35 - y6_7 - y9_40 - y5_51 - y42_55 - y19_62 - y31_36 - y10_13 - y12_41 - y54_56 - y12_50 - y23_50 - y20_63 - y4_46 - y31_63 - y23_59 - y53_60 - y1_31 - y32_46 - y43_46 - y13_42 - y16_38 - y1_49 - y35_51 - y16_47 - y17_21 - y9_17 - y38_53 - y5_28 - y17_30 - y9_26 - y38_62 - y49_62 - y27_34 - y27_43 - y19_39 - y19_48 - y42_50 - y61_63 - y8_57 - y19_57 - y30_57 - y0_53 - y4_23 - y12_36 - y20_49 - y31_49 - y4_41 - y23_54 - y1_17 - y45_60 - y16_33 - y1_44 - y16_42 - y46_52 - y38_48 - y46_61 - y57_61 - y9_21 - y26_55 - y18_51 - y27_29 - y30_34 - y0_30 - y27_56 - y0_39 - y42_54 - y0_48 - y8_61 - y20_26 - y30_61 - y31_35 - y23_31 - y20_44 - y4_27 - y1_3 - y12_49 - y1_12 - y1_21 - y4_54 - y22_62 - y1_39 - y14_58 - y37_60 - y15_41 - y26_41 - y7_46 - y15_59 - y26_59 - y49_61 - y8_20 - y19_20 - y8_29 - y0_25 - y30_38 - y0_34 - y19_47 - y30_47 - y30_56 - y0_52 - y11_52 - y12_17 - y52_53 - y11_61 - y12_26 - y31_39 - y33_58 - y44_58 - y12_35 - y4_31 - y1_7 - y53_63 - y45_59 - y56_59 - y3_53 - y14_53 - y37_55 - y15_36 - y7_32 - y38_47 - y7_50 - y8_15 - y15_63 - y26_63 - y27_28 - y18_59 - y19_24 - y27_46 - y8_42 - y19_42 - y30_42 - y0_38 - y19_51 - y30_51 - y0_47 - y11_47 - y20_25 - y4_17 - y33_53 - y23_30 - y10_60 - y4_35 - y22_34 - y1_11 - y37_41 - y22_52 - y34_54 - y45_54 - y37_50 - y34_63 - y14_57 - y15_40 - y26_40 - y38_42 - y7_36 - y18_36 - y26_58 - y0_6 - y8_19 - y0_15 - y18_63 - y8_28 - y40_60 - y19_37 - y21_56 - y0_42 - y41_43 - y41_52 - y10_46 - y33_48 - y25_44 - y4_21 - y10_55 - y1_6 - y34_40 - y14_34 - y22_47 - y37_45 - y15_17 - y14_61 - y15_26 - y55_62 - y7_22 - y15_35 - y26_35 - y18_31 - y18_49 - y48_50 - y0_10 - y29_46 - y29_55 - y0_28 - y33_34 - y41_47 - y4_7 - y41_56 - y52_56 - y10_50 - y2_46 - y22_24 - y3_20 - y22_33 - y22_42 - y14_38 - y14_47 - y7_8
 Subject to
C1: x0+x1 <=1 
C2: x0+x2 <=1 
C3: x0+x3-y0_3 <=1 
C4: x0+x4-y0_4 <=1 
C5: x0+x6-y0_6 <=1 
C6: x0+x7 <=1 
C7: x0+x10-y0_10 <=1 
C8: x0+x14 <=1 
C9: x0+x15-y0_15 <=1 
C10: x0+x16 <=1 
C11: x0+x21-y0_21 <=1 
C12: x0+x22 <=1 
C13: x0+x23-y0_23 <=1 
C14: x0+x25-y0_25 <=1 
C15: x0+x28-y0_28 <=1 
C16: x0+x29 <=1 
C17: x0+x30-y0_30 <=1 
C18: x0+x32 <=1 
C19: x0+x33 <=1 
C20: x0+x34-y0_34 <=1 
C21: x0+x35 <=1 
C22: x0+x37-y0_37 <=1 
C23: x0+x38-y0_38 <=1 
C24: x0+x39-y0_39 <=1 
C25: x0+x40 <=1 
C26: x0+x41-y0_41 <=1 
C27: x0+x42-y0_42 <=1 
C28: x0+x44 <=1 
C29: x0+x45-y0_45 <=1 
C30: x0+x46-y0_46 <=1 
C31: x0+x47-y0_47 <=1 
C32: x0+x48-y0_48 <=1 
C33: x0+x50 <=1 
C34: x0+x51-y0_51 <=1 
C35: x0+x52-y0_52 <=1 
C36: x0+x53-y0_53 <=1 
C37: x0+x57 <=1 
C38: x0+x58 <=1 
C39: x0+x60 <=1 
C40: x0+x62 <=1 
C41: x1+x2 <=1 
C42: x1+x3-y1_3 <=1 
C43: x1+x4 <=1 
C44: x1+x5 <=1 
C45: x1+x6-y1_6 <=1 
C46: x1+x7-y1_7 <=1 
C47: x1+x11-y1_11 <=1 
C48: x1+x12-y1_12 <=1 
C49: x1+x13-y1_13 <=1 
C50: x1+x14-y1_14 <=1 
C51: x1+x15-y1_15 <=1 
C52: x1+x17-y1_17 <=1 
C53: x1+x18 <=1 
C54: x1+x19 <=1 
C55: x1+x21-y1_21 <=1 
C56: x1+x23 <=1 
C57: x1+x24-y1_24 <=1 
C58: x1+x25 <=1 
C59: x1+x26 <=1 
C60: x1+x27-y1_27 <=1 
C61: x1+x28-y1_28 <=1 
C62: x1+x29-y1_29 <=1 
C63: x1+x31-y1_31 <=1 
C64: x1+x33 <=1 
C65: x1+x35 <=1 
C66: x1+x36 <=1 
C67: x1+x37-y1_37 <=1 
C68: x1+x38-y1_38 <=1 
C69: x1+x39-y1_39 <=1 
C70: x1+x40 <=1 
C71: x1+x42 <=1 
C72: x1+x43-y1_43 <=1 
C73: x1+x44-y1_44 <=1 
C74: x1+x45-y1_45 <=1 
C75: x1+x46-y1_46 <=1 
C76: x1+x47 <=1 
C77: x1+x48-y1_48 <=1 
C78: x1+x49-y1_49 <=1 
C79: x1+x50 <=1 
C80: x1+x52 <=1 
C81: x1+x53 <=1 
C82: x1+x54-y1_54 <=1 
C83: x1+x55-y1_55 <=1 
C84: x1+x56-y1_56 <=1 
C85: x1+x57 <=1 
C86: x1+x58 <=1 
C87: x1+x59 <=1 
C88: x1+x60 <=1 
C89: x1+x61-y1_61 <=1 
C90: x1+x62 <=1 
C91: x2+x3-y2_3 <=1 
C92: x2+x5-y2_5 <=1 
C93: x2+x6-y2_6 <=1 
C94: x2+x7 <=1 
C95: x2+x8-y2_8 <=1 
C96: x2+x13-y2_13 <=1 
C97: x2+x14-y2_14 <=1 
C98: x2+x15 <=1 
C99: x2+x16 <=1 
C100: x2+x17 <=1 
C101: x2+x19 <=1 
C102: x2+x20 <=1 
C103: x2+x21-y2_21 <=1 
C104: x2+x22-y2_22 <=1 
C105: x2+x25-y2_25 <=1 
C106: x2+x26 <=1 
C107: x2+x27-y2_27 <=1 
C108: x2+x30-y2_30 <=1 
C109: x2+x32-y2_32 <=1 
C110: x2+x34-y2_34 <=1 
C111: x2+x35-y2_35 <=1 
C112: x2+x36-y2_36 <=1 
C113: x2+x37 <=1 
C114: x2+x38 <=1 
C115: x2+x39 <=1 
C116: x2+x40-y2_40 <=1 
C117: x2+x41-y2_41 <=1 
C118: x2+x42 <=1 
C119: x2+x43 <=1 
C120: x2+x46-y2_46 <=1 
C121: x2+x47-y2_47 <=1 
C122: x2+x48-y2_48 <=1 
C123: x2+x49-y2_49 <=1 
C124: x2+x51 <=1 
C125: x2+x52-y2_52 <=1 
C126: x2+x53-y2_53 <=1 
C127: x2+x56-y2_56 <=1 
C128: x2+x57 <=1 
C129: x2+x59-y2_59 <=1 
C130: x2+x60 <=1 
C131: x2+x61 <=1 
C132: x2+x62-y2_62 <=1 
C133: x2+x63-y2_63 <=1 
C134: x3+x6-y3_6 <=1 
C135: x3+x8 <=1 
C136: x3+x10-y3_10 <=1 
C137: x3+x11 <=1 
C138: x3+x12 <=1 
C139: x3+x13-y3_13 <=1 
C140: x3+x14 <=1 
C141: x3+x15-y3_15 <=1 
C142: x3+x17 <=1 
C143: x3+x20-y3_20 <=1 
C144: x3+x21 <=1 
C145: x3+x22 <=1 
C146: x3+x23-y3_23 <=1 
C147: x3+x26-y3_26 <=1 
C148: x3+x27-y3_27 <=1 
C149: x3+x28-y3_28 <=1 
C150: x3+x31-y3_31 <=1 
C151: x3+x33 <=1 
C152: x3+x37 <=1 
C153: x3+x38 <=1 
C154: x3+x40-y3_40 <=1 
C155: x3+x41 <=1 
C156: x3+x42-y3_42 <=1 
C157: x3+x44-y3_44 <=1 
C158: x3+x47 <=1 
C159: x3+x50 <=1 
C160: x3+x52 <=1 
C161: x3+x53-y3_53 <=1 
C162: x3+x54-y3_54 <=1 
C163: x3+x56 <=1 
C164: x3+x58 <=1 
C165: x3+x59-y3_59 <=1 
C166: x3+x61 <=1 
C167: x3+x62 <=1 
C168: x3+x63 <=1 
C169: x4+x6 <=1 
C170: x4+x7-y4_7 <=1 
C171: x4+x10-y4_10 <=1 
C172: x4+x11 <=1 
C173: x4+x12 <=1 
C174: x4+x13 <=1 
C175: x4+x14-y4_14 <=1 
C176: x4+x15 <=1 
C177: x4+x16 <=1 
C178: x4+x17-y4_17 <=1 
C179: x4+x20-y4_20 <=1 
C180: x4+x21-y4_21 <=1 
C181: x4+x22 <=1 
C182: x4+x23-y4_23 <=1 
C183: x4+x27-y4_27 <=1 
C184: x4+x28-y4_28 <=1 
C185: x4+x31-y4_31 <=1 
C186: x4+x32 <=1 
C187: x4+x33-y4_33 <=1 
C188: x4+x34-y4_34 <=1 
C189: x4+x35-y4_35 <=1 
C190: x4+x36 <=1 
C191: x4+x37 <=1 
C192: x4+x41-y4_41 <=1 
C193: x4+x44-y4_44 <=1 
C194: x4+x45 <=1 
C195: x4+x46-y4_46 <=1 
C196: x4+x48 <=1 
C197: x4+x51 <=1 
C198: x4+x52-y4_52 <=1 
C199: x4+x53-y4_53 <=1 
C200: x4+x54-y4_54 <=1 
C201: x4+x55 <=1 
C202: x4+x56-y4_56 <=1 
C203: x4+x57-y4_57 <=1 
C204: x4+x59 <=1 
C205: x4+x60 <=1 
C206: x4+x61-y4_61 <=1 
C207: x4+x62-y4_62 <=1 
C208: x4+x63 <=1 
C209: x5+x6-y5_6 <=1 
C210: x5+x9 <=1 
C211: x5+x11-y5_11 <=1 
C212: x5+x12-y5_12 <=1 
C213: x5+x15-y5_15 <=1 
C214: x5+x16 <=1 
C215: x5+x17-y5_17 <=1 
C216: x5+x18 <=1 
C217: x5+x19 <=1 
C218: x5+x20-y5_20 <=1 
C219: x5+x21-y5_21 <=1 
C220: x5+x22-y5_22 <=1 
C221: x5+x28-y5_28 <=1 
C222: x5+x29-y5_29 <=1 
C223: x5+x30-y5_30 <=1 
C224: x5+x31-y5_31 <=1 
C225: x5+x34 <=1 
C226: x5+x35-y5_35 <=1 
C227: x5+x36 <=1 
C228: x5+x38 <=1 
C229: x5+x40 <=1 
C230: x5+x42 <=1 
C231: x5+x48 <=1 
C232: x5+x49 <=1 
C233: x5+x51-y5_51 <=1 
C234: x5+x53 <=1 
C235: x5+x54-y5_54 <=1 
C236: x5+x55 <=1 
C237: x5+x57 <=1 
C238: x5+x60-y5_60 <=1 
C239: x5+x61-y5_61 <=1 
C240: x6+x7-y6_7 <=1 
C241: x6+x8 <=1 
C242: x6+x9 <=1 
C243: x6+x12-y6_12 <=1 
C244: x6+x13-y6_13 <=1 
C245: x6+x15-y6_15 <=1 
C246: x6+x16 <=1 
C247: x6+x17-y6_17 <=1 
C248: x6+x19 <=1 
C249: x6+x20 <=1 
C250: x6+x21-y6_21 <=1 
C251: x6+x22 <=1 
C252: x6+x24-y6_24 <=1 
C253: x6+x27-y6_27 <=1 
C254: x6+x28 <=1 
C255: x6+x32-y6_32 <=1 
C256: x6+x33-y6_33 <=1 
C257: x6+x34-y6_34 <=1 
C258: x6+x35 <=1 
C259: x6+x40 <=1 
C260: x6+x42-y6_42 <=1 
C261: x6+x45 <=1 
C262: x6+x47 <=1 
C263: x6+x48 <=1 
C264: x6+x49 <=1 
C265: x6+x51 <=1 
C266: x6+x52-y6_52 <=1 
C267: x6+x53 <=1 
C268: x6+x55 <=1 
C269: x6+x58 <=1 
C270: x6+x61-y6_61 <=1 
C271: x6+x63-y6_63 <=1 
C272: x7+x8-y7_8 <=1 
C273: x7+x15 <=1 
C274: x7+x16-y7_16 <=1 
C275: x7+x17-y7_17 <=1 
C276: x7+x22-y7_22 <=1 
C277: x7+x23-y7_23 <=1 
C278: x7+x24-y7_24 <=1 
C279: x7+x25-y7_25 <=1 
C280: x7+x31 <=1 
C281: x7+x32-y7_32 <=1 
C282: x7+x33 <=1 
C283: x7+x36-y7_36 <=1 
C284: x7+x37-y7_37 <=1 
C285: x7+x38-y7_38 <=1 
C286: x7+x40 <=1 
C287: x7+x42-y7_42 <=1 
C288: x7+x43 <=1 
C289: x7+x44 <=1 
C290: x7+x46-y7_46 <=1 
C291: x7+x47 <=1 
C292: x7+x50-y7_50 <=1 
C293: x7+x52 <=1 
C294: x7+x53-y7_53 <=1 
C295: x7+x55 <=1 
C296: x7+x56 <=1 
C297: x7+x58-y7_58 <=1 
C298: x7+x59 <=1 
C299: x7+x63-y7_63 <=1 
C300: x8+x9 <=1 
C301: x8+x10 <=1 
C302: x8+x11 <=1 
C303: x8+x12 <=1 
C304: x8+x13 <=1 
C305: x8+x14 <=1 
C306: x8+x15-y8_15 <=1 
C307: x8+x16-y8_16 <=1 
C308: x8+x19-y8_19 <=1 
C309: x8+x20-y8_20 <=1 
C310: x8+x21-y8_21 <=1 
C311: x8+x27 <=1 
C312: x8+x28-y8_28 <=1 
C313: x8+x29-y8_29 <=1 
C314: x8+x30-y8_30 <=1 
C315: x8+x31 <=1 
C316: x8+x33 <=1 
C317: x8+x35-y8_35 <=1 
C318: x8+x40-y8_40 <=1 
C319: x8+x41 <=1 
C320: x8+x42-y8_42 <=1 
C321: x8+x43 <=1 
C322: x8+x46-y8_46 <=1 
C323: x8+x47 <=1 
C324: x8+x49-y8_49 <=1 
C325: x8+x53 <=1 
C326: x8+x54-y8_54 <=1 
C327: x8+x55 <=1 
C328: x8+x57-y8_57 <=1 
C329: x8+x58 <=1 
C330: x8+x60 <=1 
C331: x8+x61-y8_61 <=1 
C332: x8+x62 <=1 
C333: x8+x63-y8_63 <=1 
C334: x9+x12 <=1 
C335: x9+x13-y9_13 <=1 
C336: x9+x15-y9_15 <=1 
C337: x9+x17-y9_17 <=1 
C338: x9+x18 <=1 
C339: x9+x21-y9_21 <=1 
C340: x9+x22-y9_22 <=1 
C341: x9+x26-y9_26 <=1 
C342: x9+x27 <=1 
C343: x9+x28 <=1 
C344: x9+x30 <=1 
C345: x9+x32 <=1 
C346: x9+x34-y9_34 <=1 
C347: x9+x37 <=1 
C348: x9+x40-y9_40 <=1 
C349: x9+x41 <=1 
C350: x9+x42 <=1 
C351: x9+x43-y9_43 <=1 
C352: x9+x45 <=1 
C353: x9+x46-y9_46 <=1 
C354: x9+x47 <=1 
C355: x9+x48 <=1 
C356: x9+x49-y9_49 <=1 
C357: x9+x51-y9_51 <=1 
C358: x9+x55 <=1 
C359: x9+x59-y9_59 <=1 
C360: x9+x60 <=1 
C361: x9+x61 <=1 
C362: x9+x63-y9_63 <=1 
C363: x10+x12-y10_12 <=1 
C364: x10+x13-y10_13 <=1 
C365: x10+x14 <=1 
C366: x10+x15-y10_15 <=1 
C367: x10+x18-y10_18 <=1 
C368: x10+x22-y10_22 <=1 
C369: x10+x23-y10_23 <=1 
C370: x10+x25-y10_25 <=1 
C371: x10+x27 <=1 
C372: x10+x28 <=1 
C373: x10+x30-y10_30 <=1 
C374: x10+x32 <=1 
C375: x10+x33 <=1 
C376: x10+x34-y10_34 <=1 
C377: x10+x35-y10_35 <=1 
C378: x10+x36 <=1 
C379: x10+x37-y10_37 <=1 
C380: x10+x38-y10_38 <=1 
C381: x10+x44-y10_44 <=1 
C382: x10+x46-y10_46 <=1 
C383: x10+x47-y10_47 <=1 
C384: x10+x49 <=1 
C385: x10+x50-y10_50 <=1 
C386: x10+x51-y10_51 <=1 
C387: x10+x54 <=1 
C388: x10+x55-y10_55 <=1 
C389: x10+x56 <=1 
C390: x10+x57 <=1 
C391: x10+x59 <=1 
C392: x10+x60-y10_60 <=1 
C393: x10+x61 <=1 
C394: x11+x12-y11_12 <=1 
C395: x11+x14-y11_14 <=1 
C396: x11+x15 <=1 
C397: x11+x16 <=1 
C398: x11+x17-y11_17 <=1 
C399: x11+x20 <=1 
C400: x11+x21-y11_21 <=1 
C401: x11+x23-y11_23 <=1 
C402: x11+x32 <=1 
C403: x11+x35 <=1 
C404: x11+x37 <=1 
C405: x11+x38 <=1 
C406: x11+x40 <=1 
C407: x11+x42 <=1 
C408: x11+x45 <=1 
C409: x11+x47-y11_47 <=1 
C410: x11+x49-y11_49 <=1 
C411: x11+x50 <=1 
C412: x11+x52-y11_52 <=1 
C413: x11+x54-y11_54 <=1 
C414: x11+x55 <=1 
C415: x11+x57 <=1 
C416: x11+x59-y11_59 <=1 
C417: x11+x60 <=1 
C418: x11+x61-y11_61 <=1 
C419: x11+x62 <=1 
C420: x12+x14-y12_14 <=1 
C421: x12+x15-y12_15 <=1 
C422: x12+x17-y12_17 <=1 
C423: x12+x19 <=1 
C424: x12+x20 <=1 
C425: x12+x23-y12_23 <=1 
C426: x12+x25-y12_25 <=1 
C427: x12+x26-y12_26 <=1 
C428: x12+x27 <=1 
C429: x12+x28 <=1 
C430: x12+x32 <=1 
C431: x12+x35-y12_35 <=1 
C432: x12+x36-y12_36 <=1 
C433: x12+x38-y12_38 <=1 
C434: x12+x41-y12_41 <=1 
C435: x12+x42 <=1 
C436: x12+x48 <=1 
C437: x12+x49-y12_49 <=1 
C438: x12+x50-y12_50 <=1 
C439: x12+x51-y12_51 <=1 
C440: x12+x52 <=1 
C441: x12+x53 <=1 
C442: x12+x55-y12_55 <=1 
C443: x12+x57 <=1 
C444: x12+x58 <=1 
C445: x12+x59 <=1 
C446: x12+x61 <=1 
C447: x12+x62 <=1 
C448: x13+x15 <=1 
C449: x13+x16 <=1 
C450: x13+x17-y13_17 <=1 
C451: x13+x19 <=1 
C452: x13+x22 <=1 
C453: x13+x24 <=1 
C454: x13+x25-y13_25 <=1 
C455: x13+x26-y13_26 <=1 
C456: x13+x27 <=1 
C457: x13+x30-y13_30 <=1 
C458: x13+x32 <=1 
C459: x13+x35-y13_35 <=1 
C460: x13+x36-y13_36 <=1 
C461: x13+x37 <=1 
C462: x13+x40-y13_40 <=1 
C463: x13+x42-y13_42 <=1 
C464: x13+x43 <=1 
C465: x13+x44 <=1 
C466: x13+x45 <=1 
C467: x13+x48 <=1 
C468: x13+x52 <=1 
C469: x13+x54-y13_54 <=1 
C470: x13+x55 <=1 
C471: x13+x56 <=1 
C472: x13+x57-y13_57 <=1 
C473: x13+x59 <=1 
C474: x13+x61-y13_61 <=1 
C475: x13+x62 <=1 
C476: x13+x63 <=1 
C477: x14+x15 <=1 
C478: x14+x17-y14_17 <=1 
C479: x14+x19 <=1 
C480: x14+x22 <=1 
C481: x14+x24 <=1 
C482: x14+x25-y14_25 <=1 
C483: x14+x29 <=1 
C484: x14+x30-y14_30 <=1 
C485: x14+x32-y14_32 <=1 
C486: x14+x34-y14_34 <=1 
C487: x14+x35 <=1 
C488: x14+x37-y14_37 <=1 
C489: x14+x38-y14_38 <=1 
C490: x14+x39 <=1 
C491: x14+x41-y14_41 <=1 
C492: x14+x43 <=1 
C493: x14+x44-y14_44 <=1 
C494: x14+x45 <=1 
C495: x14+x46-y14_46 <=1 
C496: x14+x47-y14_47 <=1 
C497: x14+x49 <=1 
C498: x14+x50-y14_50 <=1 
C499: x14+x53-y14_53 <=1 
C500: x14+x57-y14_57 <=1 
C501: x14+x58-y14_58 <=1 
C502: x14+x59-y14_59 <=1 
C503: x14+x61-y14_61 <=1 
C504: x15+x17-y15_17 <=1 
C505: x15+x18-y15_18 <=1 
C506: x15+x19 <=1 
C507: x15+x24 <=1 
C508: x15+x26-y15_26 <=1 
C509: x15+x28-y15_28 <=1 
C510: x15+x29-y15_29 <=1 
C511: x15+x31 <=1 
C512: x15+x32 <=1 
C513: x15+x34-y15_34 <=1 
C514: x15+x35-y15_35 <=1 
C515: x15+x36-y15_36 <=1 
C516: x15+x37-y15_37 <=1 
C517: x15+x38 <=1 
C518: x15+x40-y15_40 <=1 
C519: x15+x41-y15_41 <=1 
C520: x15+x45 <=1 
C521: x15+x46 <=1 
C522: x15+x49 <=1 
C523: x15+x50 <=1 
C524: x15+x52 <=1 
C525: x15+x54 <=1 
C526: x15+x55 <=1 
C527: x15+x56-y15_56 <=1 
C528: x15+x57-y15_57 <=1 
C529: x15+x58 <=1 
C530: x15+x59-y15_59 <=1 
C531: x15+x61 <=1 
C532: x15+x62-y15_62 <=1 
C533: x15+x63-y15_63 <=1 
C534: x16+x19 <=1 
C535: x16+x22-y16_22 <=1 
C536: x16+x24 <=1 
C537: x16+x25 <=1 
C538: x16+x27 <=1 
C539: x16+x30 <=1 
C540: x16+x31 <=1 
C541: x16+x33-y16_33 <=1 
C542: x16+x35-y16_35 <=1 
C543: x16+x36 <=1 
C544: x16+x38-y16_38 <=1 
C545: x16+x40-y16_40 <=1 
C546: x16+x41-y16_41 <=1 
C547: x16+x42-y16_42 <=1 
C548: x16+x45-y16_45 <=1 
C549: x16+x46 <=1 
C550: x16+x47-y16_47 <=1 
C551: x16+x48 <=1 
C552: x16+x50-y16_50 <=1 
C553: x16+x53 <=1 
C554: x16+x55 <=1 
C555: x16+x56-y16_56 <=1 
C556: x16+x57 <=1 
C557: x16+x58-y16_58 <=1 
C558: x16+x60 <=1 
C559: x16+x62 <=1 
C560: x16+x63-y16_63 <=1 
C561: x17+x19-y17_19 <=1 
C562: x17+x20-y17_20 <=1 
C563: x17+x21-y17_21 <=1 
C564: x17+x22-y17_22 <=1 
C565: x17+x23 <=1 
C566: x17+x26-y17_26 <=1 
C567: x17+x27 <=1 
C568: x17+x28-y17_28 <=1 
C569: x17+x30-y17_30 <=1 
C570: x17+x33-y17_33 <=1 
C571: x17+x35-y17_35 <=1 
C572: x17+x37-y17_37 <=1 
C573: x17+x38 <=1 
C574: x17+x39-y17_39 <=1 
C575: x17+x40-y17_40 <=1 
C576: x17+x43 <=1 
C577: x17+x44 <=1 
C578: x17+x47-y17_47 <=1 
C579: x17+x50-y17_50 <=1 
C580: x17+x54 <=1 
C581: x17+x56 <=1 
C582: x17+x57 <=1 
C583: x17+x59 <=1 
C584: x17+x60-y17_60 <=1 
C585: x17+x62-y17_62 <=1 
C586: x18+x19 <=1 
C587: x18+x20-y18_20 <=1 
C588: x18+x21 <=1 
C589: x18+x22 <=1 
C590: x18+x23 <=1 
C591: x18+x24-y18_24 <=1 
C592: x18+x26 <=1 
C593: x18+x28 <=1 
C594: x18+x30-y18_30 <=1 
C595: x18+x31-y18_31 <=1 
C596: x18+x32 <=1 
C597: x18+x34-y18_34 <=1 
C598: x18+x36-y18_36 <=1 
C599: x18+x37-y18_37 <=1 
C600: x18+x38 <=1 
C601: x18+x47 <=1 
C602: x18+x48-y18_48 <=1 
C603: x18+x49-y18_49 <=1 
C604: x18+x51-y18_51 <=1 
C605: x18+x55 <=1 
C606: x18+x56 <=1 
C607: x18+x57-y18_57 <=1 
C608: x18+x58-y18_58 <=1 
C609: x18+x59-y18_59 <=1 
C610: x18+x60 <=1 
C611: x18+x61 <=1 
C612: x18+x63-y18_63 <=1 
C613: x19+x20-y19_20 <=1 
C614: x19+x21 <=1 
C615: x19+x22-y19_22 <=1 
C616: x19+x23 <=1 
C617: x19+x24-y19_24 <=1 
C618: x19+x28 <=1 
C619: x19+x30 <=1 
C620: x19+x31 <=1 
C621: x19+x34 <=1 
C622: x19+x35-y19_35 <=1 
C623: x19+x37-y19_37 <=1 
C624: x19+x39-y19_39 <=1 
C625: x19+x40 <=1 
C626: x19+x42-y19_42 <=1 
C627: x19+x43 <=1 
C628: x19+x44 <=1 
C629: x19+x45 <=1 
C630: x19+x47-y19_47 <=1 
C631: x19+x48-y19_48 <=1 
C632: x19+x49-y19_49 <=1 
C633: x19+x51-y19_51 <=1 
C634: x19+x53 <=1 
C635: x19+x55-y19_55 <=1 
C636: x19+x56 <=1 
C637: x19+x57-y19_57 <=1 
C638: x19+x58 <=1 
C639: x19+x59 <=1 
C640: x19+x60-y19_60 <=1 
C641: x19+x62-y19_62 <=1 
C642: x20+x21 <=1 
C643: x20+x22 <=1 
C644: x20+x25-y20_25 <=1 
C645: x20+x26-y20_26 <=1 
C646: x20+x27 <=1 
C647: x20+x32-y20_32 <=1 
C648: x20+x34 <=1 
C649: x20+x35 <=1 
C650: x20+x36 <=1 
C651: x20+x37 <=1 
C652: x20+x38-y20_38 <=1 
C653: x20+x41-y20_41 <=1 
C654: x20+x42-y20_42 <=1 
C655: x20+x43-y20_43 <=1 
C656: x20+x44-y20_44 <=1 
C657: x20+x45 <=1 
C658: x20+x47-y20_47 <=1 
C659: x20+x48-y20_48 <=1 
C660: x20+x49-y20_49 <=1 
C661: x20+x50 <=1 
C662: x20+x57 <=1 
C663: x20+x60-y20_60 <=1 
C664: x20+x61 <=1 
C665: x20+x63-y20_63 <=1 
C666: x21+x23 <=1 
C667: x21+x27 <=1 
C668: x21+x29-y21_29 <=1 
C669: x21+x30-y21_30 <=1 
C670: x21+x32 <=1 
C671: x21+x34 <=1 
C672: x21+x36-y21_36 <=1 
C673: x21+x41-y21_41 <=1 
C674: x21+x42 <=1 
C675: x21+x44-y21_44 <=1 
C676: x21+x45 <=1 
C677: x21+x46-y21_46 <=1 
C678: x21+x47-y21_47 <=1 
C679: x21+x48-y21_48 <=1 
C680: x21+x51 <=1 
C681: x21+x52-y21_52 <=1 
C682: x21+x56-y21_56 <=1 
C683: x21+x57 <=1 
C684: x21+x58-y21_58 <=1 
C685: x21+x61 <=1 
C686: x21+x62 <=1 
C687: x22+x24-y22_24 <=1 
C688: x22+x25 <=1 
C689: x22+x26-y22_26 <=1 
C690: x22+x27 <=1 
C691: x22+x28 <=1 
C692: x22+x29 <=1 
C693: x22+x31-y22_31 <=1 
C694: x22+x32 <=1 
C695: x22+x33-y22_33 <=1 
C696: x22+x34-y22_34 <=1 
C697: x22+x35-y22_35 <=1 
C698: x22+x36-y22_36 <=1 
C699: x22+x37 <=1 
C700: x22+x39 <=1 
C701: x22+x40-y22_40 <=1 
C702: x22+x41 <=1 
C703: x22+x42-y22_42 <=1 
C704: x22+x44-y22_44 <=1 
C705: x22+x45 <=1 
C706: x22+x47-y22_47 <=1 
C707: x22+x50-y22_50 <=1 
C708: x22+x51 <=1 
C709: x22+x52-y22_52 <=1 
C710: x22+x53-y22_53 <=1 
C711: x22+x55 <=1 
C712: x22+x57 <=1 
C713: x22+x58 <=1 
C714: x22+x59-y22_59 <=1 
C715: x22+x60 <=1 
C716: x22+x62-y22_62 <=1 
C717: x23+x25 <=1 
C718: x23+x30-y23_30 <=1 
C719: x23+x31-y23_31 <=1 
C720: x23+x36 <=1 
C721: x23+x37 <=1 
C722: x23+x38 <=1 
C723: x23+x42 <=1 
C724: x23+x43 <=1 
C725: x23+x45 <=1 
C726: x23+x48 <=1 
C727: x23+x49 <=1 
C728: x23+x50-y23_50 <=1 
C729: x23+x51-y23_51 <=1 
C730: x23+x52-y23_52 <=1 
C731: x23+x53 <=1 
C732: x23+x54-y23_54 <=1 
C733: x23+x59-y23_59 <=1 
C734: x23+x61 <=1 
C735: x24+x25-y24_25 <=1 
C736: x24+x26 <=1 
C737: x24+x28 <=1 
C738: x24+x29-y24_29 <=1 
C739: x24+x34-y24_34 <=1 
C740: x24+x36 <=1 
C741: x24+x37 <=1 
C742: x24+x38 <=1 
C743: x24+x44-y24_44 <=1 
C744: x24+x45 <=1 
C745: x24+x47-y24_47 <=1 
C746: x24+x48-y24_48 <=1 
C747: x24+x50 <=1 
C748: x24+x52-y24_52 <=1 
C749: x24+x53-y24_53 <=1 
C750: x24+x54 <=1 
C751: x24+x55-y24_55 <=1 
C752: x24+x56 <=1 
C753: x24+x57-y24_57 <=1 
C754: x24+x58 <=1 
C755: x24+x59 <=1 
C756: x24+x62 <=1 
C757: x25+x27-y25_27 <=1 
C758: x25+x28 <=1 
C759: x25+x29 <=1 
C760: x25+x30 <=1 
C761: x25+x33 <=1 
C762: x25+x34 <=1 
C763: x25+x35 <=1 
C764: x25+x36-y25_36 <=1 
C765: x25+x37 <=1 
C766: x25+x38-y25_38 <=1 
C767: x25+x41 <=1 
C768: x25+x43 <=1 
C769: x25+x44-y25_44 <=1 
C770: x25+x45-y25_45 <=1 
C771: x25+x46-y25_46 <=1 
C772: x25+x47-y25_47 <=1 
C773: x25+x55 <=1 
C774: x25+x56 <=1 
C775: x25+x57 <=1 
C776: x25+x59-y25_59 <=1 
C777: x25+x60-y25_60 <=1 
C778: x25+x63 <=1 
C779: x26+x29 <=1 
C780: x26+x34 <=1 
C781: x26+x35-y26_35 <=1 
C782: x26+x36 <=1 
C783: x26+x37 <=1 
C784: x26+x38-y26_38 <=1 
C785: x26+x40-y26_40 <=1 
C786: x26+x41-y26_41 <=1 
C787: x26+x46 <=1 
C788: x26+x47 <=1 
C789: x26+x51-y26_51 <=1 
C790: x26+x52 <=1 
C791: x26+x53-y26_53 <=1 
C792: x26+x54 <=1 
C793: x26+x55-y26_55 <=1 
C794: x26+x56 <=1 
C795: x26+x57 <=1 
C796: x26+x58-y26_58 <=1 
C797: x26+x59-y26_59 <=1 
C798: x26+x61 <=1 
C799: x26+x62 <=1 
C800: x26+x63-y26_63 <=1 
C801: x27+x28-y27_28 <=1 
C802: x27+x29-y27_29 <=1 
C803: x27+x30 <=1 
C804: x27+x31-y27_31 <=1 
C805: x27+x32 <=1 
C806: x27+x34-y27_34 <=1 
C807: x27+x35-y27_35 <=1 
C808: x27+x36 <=1 
C809: x27+x37 <=1 
C810: x27+x40-y27_40 <=1 
C811: x27+x43-y27_43 <=1 
C812: x27+x44-y27_44 <=1 
C813: x27+x45-y27_45 <=1 
C814: x27+x46-y27_46 <=1 
C815: x27+x47 <=1 
C816: x27+x48 <=1 
C817: x27+x51 <=1 
C818: x27+x52 <=1 
C819: x27+x55-y27_55 <=1 
C820: x27+x56-y27_56 <=1 
C821: x27+x57 <=1 
C822: x27+x60 <=1 
C823: x27+x62-y27_62 <=1 
C824: x27+x63 <=1 
C825: x28+x30 <=1 
C826: x28+x35-y28_35 <=1 
C827: x28+x36-y28_36 <=1 
C828: x28+x37-y28_37 <=1 
C829: x28+x41-y28_41 <=1 
C830: x28+x42 <=1 
C831: x28+x44 <=1 
C832: x28+x45-y28_45 <=1 
C833: x28+x47-y28_47 <=1 
C834: x28+x49 <=1 
C835: x28+x50 <=1 
C836: x28+x55 <=1 
C837: x28+x56-y28_56 <=1 
C838: x28+x57 <=1 
C839: x28+x58 <=1 
C840: x28+x59 <=1 
C841: x28+x60 <=1 
C842: x28+x61-y28_61 <=1 
C843: x28+x62 <=1 
C844: x29+x31-y29_31 <=1 
C845: x29+x33 <=1 
C846: x29+x34-y29_34 <=1 
C847: x29+x36-y29_36 <=1 
C848: x29+x37 <=1 
C849: x29+x38-y29_38 <=1 
C850: x29+x39 <=1 
C851: x29+x40 <=1 
C852: x29+x41-y29_41 <=1 
C853: x29+x43 <=1 
C854: x29+x44 <=1 
C855: x29+x45-y29_45 <=1 
C856: x29+x46-y29_46 <=1 
C857: x29+x47-y29_47 <=1 
C858: x29+x48-y29_48 <=1 
C859: x29+x50 <=1 
C860: x29+x51 <=1 
C861: x29+x55-y29_55 <=1 
C862: x29+x57-y29_57 <=1 
C863: x29+x59-y29_59 <=1 
C864: x29+x60 <=1 
C865: x29+x62 <=1 
C866: x29+x63 <=1 
C867: x30+x31 <=1 
C868: x30+x32 <=1 
C869: x30+x34-y30_34 <=1 
C870: x30+x35 <=1 
C871: x30+x37 <=1 
C872: x30+x38-y30_38 <=1 
C873: x30+x40-y30_40 <=1 
C874: x30+x41 <=1 
C875: x30+x42-y30_42 <=1 
C876: x30+x43 <=1 
C877: x30+x44 <=1 
C878: x30+x45-y30_45 <=1 
C879: x30+x46-y30_46 <=1 
C880: x30+x47-y30_47 <=1 
C881: x30+x48 <=1 
C882: x30+x49-y30_49 <=1 
C883: x30+x51-y30_51 <=1 
C884: x30+x52 <=1 
C885: x30+x53 <=1 
C886: x30+x55 <=1 
C887: x30+x56-y30_56 <=1 
C888: x30+x57-y30_57 <=1 
C889: x30+x58 <=1 
C890: x30+x59-y30_59 <=1 
C891: x30+x60-y30_60 <=1 
C892: x30+x61-y30_61 <=1 
C893: x30+x63 <=1 
C894: x31+x33-y31_33 <=1 
C895: x31+x34 <=1 
C896: x31+x35-y31_35 <=1 
C897: x31+x36-y31_36 <=1 
C898: x31+x37 <=1 
C899: x31+x39-y31_39 <=1 
C900: x31+x42-y31_42 <=1 
C901: x31+x47 <=1 
C902: x31+x48-y31_48 <=1 
C903: x31+x49-y31_49 <=1 
C904: x31+x50-y31_50 <=1 
C905: x31+x51 <=1 
C906: x31+x53 <=1 
C907: x31+x55 <=1 
C908: x31+x56 <=1 
C909: x31+x58 <=1 
C910: x31+x59-y31_59 <=1 
C911: x31+x60 <=1 
C912: x31+x61-y31_61 <=1 
C913: x31+x62 <=1 
C914: x31+x63-y31_63 <=1 
C915: x32+x33-y32_33 <=1 
C916: x32+x34 <=1 
C917: x32+x36-y32_36 <=1 
C918: x32+x37 <=1 
C919: x32+x38 <=1 
C920: x32+x39-y32_39 <=1 
C921: x32+x41 <=1 
C922: x32+x42 <=1 
C923: x32+x46-y32_46 <=1 
C924: x32+x47-y32_47 <=1 
C925: x32+x48 <=1 
C926: x32+x52-y32_52 <=1 
C927: x32+x54-y32_54 <=1 
C928: x32+x56-y32_56 <=1 
C929: x32+x58 <=1 
C930: x32+x59-y32_59 <=1 
C931: x32+x60 <=1 
C932: x32+x61 <=1 
C933: x32+x63 <=1 
C934: x33+x34-y33_34 <=1 
C935: x33+x36-y33_36 <=1 
C936: x33+x37-y33_37 <=1 
C937: x33+x38 <=1 
C938: x33+x42-y33_42 <=1 
C939: x33+x43 <=1 
C940: x33+x48-y33_48 <=1 
C941: x33+x49-y33_49 <=1 
C942: x33+x50 <=1 
C943: x33+x52 <=1 
C944: x33+x53-y33_53 <=1 
C945: x33+x55 <=1 
C946: x33+x58-y33_58 <=1 
C947: x34+x37 <=1 
C948: x34+x38 <=1 
C949: x34+x39 <=1 
C950: x34+x40-y34_40 <=1 
C951: x34+x42 <=1 
C952: x34+x43 <=1 
C953: x34+x44 <=1 
C954: x34+x46 <=1 
C955: x34+x48 <=1 
C956: x34+x51 <=1 
C957: x34+x54-y34_54 <=1 
C958: x34+x58-y34_58 <=1 
C959: x34+x60 <=1 
C960: x34+x63-y34_63 <=1 
C961: x35+x36-y35_36 <=1 
C962: x35+x38 <=1 
C963: x35+x40 <=1 
C964: x35+x41 <=1 
C965: x35+x42 <=1 
C966: x35+x44 <=1 
C967: x35+x45-y35_45 <=1 
C968: x35+x46 <=1 
C969: x35+x47 <=1 
C970: x35+x48 <=1 
C971: x35+x49-y35_49 <=1 
C972: x35+x51-y35_51 <=1 
C973: x35+x52-y35_52 <=1 
C974: x35+x53 <=1 
C975: x35+x56-y35_56 <=1 
C976: x35+x57 <=1 
C977: x35+x59 <=1 
C978: x35+x60 <=1 
C979: x35+x61-y35_61 <=1 
C980: x35+x62-y35_62 <=1 
C981: x35+x63-y35_63 <=1 
C982: x36+x38 <=1 
C983: x36+x40 <=1 
C984: x36+x41 <=1 
C985: x36+x43-y36_43 <=1 
C986: x36+x46 <=1 
C987: x36+x48-y36_48 <=1 
C988: x36+x49 <=1 
C989: x36+x52 <=1 
C990: x36+x53-y36_53 <=1 
C991: x36+x54-y36_54 <=1 
C992: x36+x55-y36_55 <=1 
C993: x36+x58-y36_58 <=1 
C994: x36+x59-y36_59 <=1 
C995: x36+x60-y36_60 <=1 
C996: x36+x62 <=1 
C997: x37+x38-y37_38 <=1 
C998: x37+x39-y37_39 <=1 
C999: x37+x41-y37_41 <=1 
C1000: x37+x42 <=1 
C1001: x37+x45-y37_45 <=1 
C1002: x37+x47-y37_47 <=1 
C1003: x37+x50-y37_50 <=1 
C1004: x37+x51 <=1 
C1005: x37+x53 <=1 
C1006: x37+x54 <=1 
C1007: x37+x55-y37_55 <=1 
C1008: x37+x56 <=1 
C1009: x37+x57-y37_57 <=1 
C1010: x37+x58-y37_58 <=1 
C1011: x37+x59 <=1 
C1012: x37+x60-y37_60 <=1 
C1013: x37+x61-y37_61 <=1 
C1014: x38+x40-y38_40 <=1 
C1015: x38+x41-y38_41 <=1 
C1016: x38+x42-y38_42 <=1 
C1017: x38+x44 <=1 
C1018: x38+x45-y38_45 <=1 
C1019: x38+x46-y38_46 <=1 
C1020: x38+x47-y38_47 <=1 
C1021: x38+x48-y38_48 <=1 
C1022: x38+x49 <=1 
C1023: x38+x50-y38_50 <=1 
C1024: x38+x51 <=1 
C1025: x38+x53-y38_53 <=1 
C1026: x38+x55 <=1 
C1027: x38+x56 <=1 
C1028: x38+x57 <=1 
C1029: x38+x59-y38_59 <=1 
C1030: x38+x60-y38_60 <=1 
C1031: x38+x62-y38_62 <=1 
C1032: x38+x63 <=1 
C1033: x39+x41-y39_41 <=1 
C1034: x39+x43 <=1 
C1035: x39+x45-y39_45 <=1 
C1036: x39+x50 <=1 
C1037: x39+x51-y39_51 <=1 
C1038: x39+x52 <=1 
C1039: x39+x54-y39_54 <=1 
C1040: x39+x55 <=1 
C1041: x39+x56-y39_56 <=1 
C1042: x39+x59-y39_59 <=1 
C1043: x39+x61 <=1 
C1044: x40+x42 <=1 
C1045: x40+x43-y40_43 <=1 
C1046: x40+x46 <=1 
C1047: x40+x47-y40_47 <=1 
C1048: x40+x49 <=1 
C1049: x40+x51 <=1 
C1050: x40+x53-y40_53 <=1 
C1051: x40+x54-y40_54 <=1 
C1052: x40+x56 <=1 
C1053: x40+x57-y40_57 <=1 
C1054: x40+x59 <=1 
C1055: x40+x60-y40_60 <=1 
C1056: x40+x62-y40_62 <=1 
C1057: x40+x63 <=1 
C1058: x41+x42 <=1 
C1059: x41+x43-y41_43 <=1 
C1060: x41+x44 <=1 
C1061: x41+x45-y41_45 <=1 
C1062: x41+x46-y41_46 <=1 
C1063: x41+x47-y41_47 <=1 
C1064: x41+x49 <=1 
C1065: x41+x50-y41_50 <=1 
C1066: x41+x51 <=1 
C1067: x41+x52-y41_52 <=1 
C1068: x41+x53 <=1 
C1069: x41+x54-y41_54 <=1 
C1070: x41+x56-y41_56 <=1 
C1071: x41+x58-y41_58 <=1 
C1072: x41+x59 <=1 
C1073: x41+x60 <=1 
C1074: x41+x61 <=1 
C1075: x41+x63 <=1 
C1076: x42+x44 <=1 
C1077: x42+x45 <=1 
C1078: x42+x46 <=1 
C1079: x42+x49 <=1 
C1080: x42+x50-y42_50 <=1 
C1081: x42+x51-y42_51 <=1 
C1082: x42+x54-y42_54 <=1 
C1083: x42+x55-y42_55 <=1 
C1084: x42+x56 <=1 
C1085: x42+x57-y42_57 <=1 
C1086: x42+x58 <=1 
C1087: x42+x60-y42_60 <=1 
C1088: x43+x44 <=1 
C1089: x43+x46-y43_46 <=1 
C1090: x43+x48 <=1 
C1091: x43+x50 <=1 
C1092: x43+x51-y43_51 <=1 
C1093: x43+x52 <=1 
C1094: x43+x53 <=1 
C1095: x43+x54 <=1 
C1096: x43+x55 <=1 
C1097: x43+x57-y43_57 <=1 
C1098: x43+x58 <=1 
C1099: x43+x59 <=1 
C1100: x43+x61-y43_61 <=1 
C1101: x43+x62-y43_62 <=1 
C1102: x43+x63-y43_63 <=1 
C1103: x44+x50 <=1 
C1104: x44+x53 <=1 
C1105: x44+x56 <=1 
C1106: x44+x57 <=1 
C1107: x44+x58-y44_58 <=1 
C1108: x44+x59 <=1 
C1109: x44+x60 <=1 
C1110: x44+x61 <=1 
C1111: x45+x49 <=1 
C1112: x45+x52 <=1 
C1113: x45+x53 <=1 
C1114: x45+x54-y45_54 <=1 
C1115: x45+x55 <=1 
C1116: x45+x56-y45_56 <=1 
C1117: x45+x57-y45_57 <=1 
C1118: x45+x59-y45_59 <=1 
C1119: x45+x60-y45_60 <=1 
C1120: x45+x61 <=1 
C1121: x46+x47 <=1 
C1122: x46+x48 <=1 
C1123: x46+x49-y46_49 <=1 
C1124: x46+x50-y46_50 <=1 
C1125: x46+x51 <=1 
C1126: x46+x52-y46_52 <=1 
C1127: x46+x53-y46_53 <=1 
C1128: x46+x54 <=1 
C1129: x46+x56 <=1 
C1130: x46+x58 <=1 
C1131: x46+x59 <=1 
C1132: x46+x61-y46_61 <=1 
C1133: x46+x62-y46_62 <=1 
C1134: x46+x63-y46_63 <=1 
C1135: x47+x48 <=1 
C1136: x47+x50-y47_50 <=1 
C1137: x47+x51 <=1 
C1138: x47+x52 <=1 
C1139: x47+x53-y47_53 <=1 
C1140: x47+x54 <=1 
C1141: x47+x55 <=1 
C1142: x47+x58-y47_58 <=1 
C1143: x47+x59 <=1 
C1144: x47+x60 <=1 
C1145: x47+x61-y47_61 <=1 
C1146: x47+x62-y47_62 <=1 
C1147: x47+x63 <=1 
C1148: x48+x49 <=1 
C1149: x48+x50-y48_50 <=1 
C1150: x48+x52 <=1 
C1151: x48+x53 <=1 
C1152: x48+x54 <=1 
C1153: x48+x56 <=1 
C1154: x48+x58-y48_58 <=1 
C1155: x48+x61-y48_61 <=1 
C1156: x48+x63-y48_63 <=1 
C1157: x49+x50 <=1 
C1158: x49+x51-y49_51 <=1 
C1159: x49+x54-y49_54 <=1 
C1160: x49+x56 <=1 
C1161: x49+x57 <=1 
C1162: x49+x58 <=1 
C1163: x49+x61-y49_61 <=1 
C1164: x49+x62-y49_62 <=1 
C1165: x50+x51-y50_51 <=1 
C1166: x50+x53-y50_53 <=1 
C1167: x50+x55-y50_55 <=1 
C1168: x50+x57 <=1 
C1169: x50+x58-y50_58 <=1 
C1170: x50+x59 <=1 
C1171: x50+x60 <=1 
C1172: x50+x63 <=1 
C1173: x51+x57 <=1 
C1174: x51+x59-y51_59 <=1 
C1175: x51+x61 <=1 
C1176: x51+x63 <=1 
C1177: x52+x53-y52_53 <=1 
C1178: x52+x55 <=1 
C1179: x52+x56-y52_56 <=1 
C1180: x52+x58 <=1 
C1181: x52+x60 <=1 
C1182: x52+x61 <=1 
C1183: x52+x62 <=1 
C1184: x53+x56-y53_56 <=1 
C1185: x53+x59 <=1 
C1186: x53+x60-y53_60 <=1 
C1187: x53+x62-y53_62 <=1 
C1188: x53+x63-y53_63 <=1 
C1189: x54+x55-y54_55 <=1 
C1190: x54+x56-y54_56 <=1 
C1191: x54+x61 <=1 
C1192: x54+x62 <=1 
C1193: x54+x63 <=1 
C1194: x55+x56-y55_56 <=1 
C1195: x55+x57-y55_57 <=1 
C1196: x55+x60 <=1 
C1197: x55+x61-y55_61 <=1 
C1198: x55+x62-y55_62 <=1 
C1199: x55+x63-y55_63 <=1 
C1200: x56+x59-y56_59 <=1 
C1201: x56+x60 <=1 
C1202: x56+x61 <=1 
C1203: x56+x62-y56_62 <=1 
C1204: x56+x63 <=1 
C1205: x57+x58-y57_58 <=1 
C1206: x57+x59-y57_59 <=1 
C1207: x57+x61-y57_61 <=1 
C1208: x57+x63-y57_63 <=1 
C1209: x58+x59 <=1 
C1210: x58+x60 <=1 
C1211: x58+x62-y58_62 <=1 
C1212: x59+x62 <=1 
C1213: x60+x62 <=1 
C1214: x61+x62-y61_62 <=1 
C1215: x61+x63-y61_63 <=1 
C1216: x62+x63-y62_63 <=1 

binary
x0
x1
x2
x3
x4
x5
x6
x7
x8
x9
x10
x11
x12
x13
x14
x15
x16
x17
x18
x19
x20
x21
x22
x23
x24
x25
x26
x27
x28
x29
x30
x31
x32
x33
x34
x35
x36
x37
x38
x39
x40
x41
x42
x43
x44
x45
x46
x47
x48
x49
x50
x51
x52
x53
x54
x55
x56
x57
x58
x59
x60
x61
x62
x63
