problem_generation/data/GISP/train/er_n=64_m=1216_p=0.60_SET2_setparam=100.00_alpha=0.50_574.sol
objective value:                                 1272
x0                                                  1 	(obj:100)
x5                                                  1 	(obj:100)
x6                                                  1 	(obj:100)
x10                                                 1 	(obj:100)
x11                                                 1 	(obj:100)
x12                                                 1 	(obj:100)
x17                                                 1 	(obj:100)
x21                                                 1 	(obj:100)
x24                                                 1 	(obj:100)
x31                                                 1 	(obj:100)
x39                                                 1 	(obj:100)
x46                                                 1 	(obj:100)
x63                                                 1 	(obj:100)
y21_46                                              1 	(obj:-1)
y17_39                                              1 	(obj:-1)
y6_24                                               1 	(obj:-1)
y10_12                                              1 	(obj:-1)
y5_31                                               1 	(obj:-1)
y5_17                                               1 	(obj:-1)
y5_12                                               1 	(obj:-1)
y5_21                                               1 	(obj:-1)
y0_46                                               1 	(obj:-1)
y46_63                                              1 	(obj:-1)
y5_11                                               1 	(obj:-1)
y5_6                                                1 	(obj:-1)
y11_17                                              1 	(obj:-1)
y11_12                                              1 	(obj:-1)
y0_21                                               1 	(obj:-1)
y11_21                                              1 	(obj:-1)
y6_63                                               1 	(obj:-1)
y6_17                                               1 	(obj:-1)
y6_12                                               1 	(obj:-1)
y6_21                                               1 	(obj:-1)
y31_63                                              1 	(obj:-1)
y17_21                                              1 	(obj:-1)
y0_39                                               1 	(obj:-1)
y12_17                                              1 	(obj:-1)
y31_39                                              1 	(obj:-1)
y0_6                                                1 	(obj:-1)
y10_46                                              1 	(obj:-1)
y0_10                                               1 	(obj:-1)
